Route 1: 11 6
Route 2: 16 33 90 18 67 107 4
Route 3: 3 92 42 105
Route 4: 47 71 57 32 12 37 14
Route 5: 60 96 108 101 29 10 79 54 30 89 83 22 53 51
Route 6: 43 94 110 19 36 100 50 48 80 88 74 87 61 49 7 109 20 17
Route 7: 70 77 56 81 98 39 78 59 114 13 46 97 23 52 26 24 66 82 34 62 104
Route 8: 31 28 45 115 95 63 21 102 5 93 58 55
Route 9: 27 8 2 65 111
Route 10: 86 35 73 103 25 72 38 99 64 75 91 40 68 41 44 69 15 9 84 76 85 106 113 112
Cost 14060.64
